70
1 0 107
2 0 80
2 1 297
3 2 131
4 1 228
4 3 218
5 0 160
5 2 302
5 3 190
5 4 278
6 0 67
6 1 229
6 2 317
6 3 117
6 5 192
7 0 242
7 1 156
7 2 106
7 3 180
7 4 241
7 5 171
8 0 57
8 1 7
8 2 75
8 4 305
8 5 280
8 6 15
9 0 207
9 1 132
9 2 15
9 4 175
9 5 96
9 6 29
9 7 257
9 8 73
10 1 59
10 2 119
10 4 175
10 5 175
10 7 246
10 9 214
11 0 238
11 1 110
11 2 318
11 3 126
11 4 117
11 5 196
11 6 137
11 7 161
11 8 193
11 9 93
11 10 25
12 1 108
12 2 216
12 3 137
12 4 260
12 5 28
12 7 51
12 10 62
12 11 84
13 0 255
13 1 5
13 2 293
13 4 244
13 5 256
13 7 274
13 8 265
13 9 304
13 10 200
13 11 136
13 12 95
14 0 239
14 1 172
14 3 165
14 5 123
14 6 159
14 7 114
14 8 122
14 10 14
14 11 89
14 12 275
15 0 259
15 1 129
15 2 125
15 3 171
15 4 226
15 6 27
15 7 6
15 8 108
15 9 108
15 10 273
15 14 136
16 2 2
16 3 44
16 4 262
16 6 226
16 7 53
16 8 118
16 9 197
16 10 176
16 11 34
16 12 232
16 13 132
16 14 76
16 15 14
17 0 302
17 1 205
17 2 162
17 6 140
17 8 27
17 9 292
17 10 43
17 11 102
17 12 107
17 13 187
17 15 160
17 16 251
18 0 295
18 1 103
18 2 211
18 3 237
18 4 155
18 7 28
18 8 123
18 9 220
18 10 33
18 11 6
18 12 222
18 13 134
18 16 71
18 17 24
19 0 198
19 1 119
19 2 137
19 3 140
19 5 187
19 6 212
19 7 157
19 8 180
19 9 70
19 12 296
19 13 24
19 15 298
19 16 80
19 17 206
20 2 103
20 3 154
20 4 19
20 5 212
20 6 176
20 7 221
20 8 221
20 9 271
20 10 64
20 12 157
20 13 151
20 14 62
20 15 35
20 16 239
20 17 193
20 18 22
20 19 38
21 0 162
21 2 184
21 3 124
21 4 148
21 5 317
21 6 210
21 7 71
21 8 233
21 9 205
21 10 29
21 11 157
21 12 238
21 13 204
21 15 206
21 18 193
21 20 17
22 0 198
22 1 289
22 2 192
22 3 264
22 6 79
22 7 67
22 8 141
22 11 109
22 13 139
22 14 158
22 15 6
22 17 151
22 18 288
22 20 207
22 21 297
23 0 223
23 1 147
23 2 88
23 5 207
23 6 31
23 7 22
23 10 18
23 11 59
23 12 134
23 13 177
23 14 305
23 15 311
23 16 47
23 17 299
23 18 295
23 19 306
23 22 166
24 1 265
24 2 123
24 3 276
24 4 74
24 5 241
24 7 165
24 8 56
24 9 252
24 10 239
24 12 82
24 13 188
24 15 54
24 18 102
24 20 285
24 21 298
24 22 54
25 1 26
25 4 178
25 5 148
25 7 304
25 8 279
25 9 308
25 10 186
25 12 276
25 13 236
25 14 274
25 15 313
25 16 320
25 17 226
25 18 193
25 19 275
25 20 158
25 21 115
25 22 186
26 0 263
26 1 237
26 2 259
26 3 83
26 5 224
26 6 61
26 7 216
26 8 258
26 9 146
26 10 257
26 11 52
26 14 283
26 15 126
26 17 280
26 18 8
26 19 255
26 21 164
26 22 100
26 23 315
26 25 18
27 0 267
27 1 8
27 2 16
27 4 154
27 5 220
27 6 216
27 7 146
27 8 43
27 9 27
27 10 105
27 11 268
27 12 319
27 14 56
27 15 217
27 16 88
27 17 258
27 18 190
27 19 209
27 21 269
27 22 39
27 24 123
27 26 179
28 0 315
28 1 105
28 3 189
28 4 84
28 5 82
28 6 216
28 7 92
28 8 90
28 9 206
28 10 313
28 11 77
28 12 183
28 14 205
28 15 303
28 16 258
28 17 33
28 18 291
28 19 301
28 20 313
28 21 241
28 22 70
28 23 282
28 24 69
28 25 236
28 27 201
29 0 163
29 1 303
29 3 39
29 4 154
29 5 223
29 6 178
29 7 21
29 8 96
29 9 278
29 12 177
29 13 223
29 14 196
29 15 85
29 16 176
29 17 206
29 18 98
29 19 130
29 21 65
29 22 285
29 23 284
29 24 317
29 25 91
29 27 103
29 28 172
30 0 140
30 1 225
30 2 117
30 3 113
30 5 119
30 6 206
30 7 129
30 9 92
30 11 227
30 12 5
30 13 185
30 14 265
30 16 260
30 17 57
30 18 85
30 19 255
30 21 32
30 22 23
30 23 144
30 24 91
30 26 91
30 29 244
31 0 1
31 1 53
31 2 275
31 3 180
31 4 304
31 5 203
31 6 214
31 7 254
31 8 190
31 9 235
31 11 63
31 12 266
31 13 144
31 14 138
31 15 223
31 16 258
31 17 11
31 18 100
31 19 211
31 20 244
31 22 283
31 23 187
31 25 224
31 26 103
31 27 287
31 28 47
31 30 106
32 0 77
32 1 295
32 2 180
32 3 51
32 4 5
32 5 220
32 6 22
32 9 281
32 11 310
32 12 163
32 13 270
32 14 88
32 15 278
32 17 121
32 18 72
32 19 144
32 20 236
32 21 98
32 22 132
32 23 166
32 25 215
32 26 253
32 27 301
32 28 43
32 31 47
33 0 210
33 1 13
33 2 315
33 4 57
33 5 184
33 6 76
33 7 261
33 8 121
33 9 78
33 10 37
33 11 149
33 12 200
33 14 30
33 15 213
33 16 311
33 17 223
33 18 246
33 19 182
33 20 251
33 21 147
33 22 149
33 23 23
33 24 317
33 27 274
33 28 151
33 30 108
33 31 15
33 32 111
34 0 72
34 1 154
34 2 112
34 3 204
34 4 141
34 5 188
34 6 227
34 7 23
34 8 231
34 9 289
34 10 130
34 14 265
34 15 104
34 17 6
34 18 19
34 19 22
34 22 313
34 24 73
34 25 21
34 26 165
34 27 195
34 28 318
34 29 81
34 30 250
34 31 26
34 32 204
34 33 225
35 1 208
35 3 33
35 7 50
35 9 231
35 11 241
35 12 227
35 13 6
35 14 93
35 16 42
35 17 257
35 18 113
35 19 139
35 20 169
35 23 46
35 24 144
35 25 260
35 26 131
35 29 172
35 30 181
35 31 102
35 32 220
35 33 6
35 34 260
36 0 136
36 1 129
36 2 25
36 4 35
36 5 315
36 7 98
36 8 113
36 9 290
36 10 96
36 11 128
36 12 28
36 13 60
36 14 213
36 15 278
36 16 172
36 17 226
36 18 293
36 21 263
36 22 160
36 23 30
36 24 29
36 25 70
36 27 193
36 28 6
36 29 296
36 30 201
36 32 252
36 33 189
36 34 72
36 35 34
37 0 23
37 4 188
37 5 38
37 6 9
37 7 46
37 8 93
37 10 293
37 11 263
37 13 51
37 16 1
37 18 221
37 19 104
37 20 224
37 23 71
37 25 109
37 26 304
37 27 25
37 28 105
37 29 66
37 30 45
37 31 189
37 32 318
37 33 238
37 34 265
37 35 8
37 36 21
38 0 164
38 1 51
38 2 249
38 3 292
38 5 262
38 6 42
38 7 205
38 8 304
38 9 242
38 10 64
38 12 214
38 13 271
38 14 171
38 15 296
38 16 32
38 18 94
38 19 247
38 20 13
38 22 69
38 24 277
38 25 7
38 26 77
38 27 34
38 30 248
38 31 159
38 32 306
38 33 167
38 36 52
38 37 19
39 0 215
39 1 193
39 2 270
39 3 88
39 4 190
39 6 271
39 7 46
39 8 83
39 9 53
39 10 61
39 11 318
39 12 46
39 13 69
39 14 149
39 15 137
39 18 112
39 19 45
39 20 19
39 23 197
39 24 165
39 26 269
39 27 194
39 28 226
39 29 120
39 30 269
39 31 147
39 32 235
39 33 315
39 34 146
39 35 243
39 36 319
39 37 320
39 38 149
40 0 298
40 1 310
40 2 3
40 3 120
40 4 187
40 5 36
40 6 285
40 7 243
40 8 207
40 9 148
40 10 8
40 11 64
40 12 106
40 13 133
40 14 196
40 15 284
40 17 93
40 18 185
40 19 289
40 20 43
40 21 297
40 23 296
40 24 20
40 25 216
40 27 120
40 28 273
40 29 3
40 30 259
40 31 101
40 32 2
40 33 172
40 35 226
40 37 224
40 38 72
40 39 69
41 1 302
41 2 44
41 4 282
41 5 21
41 6 200
41 7 277
41 8 255
41 9 161
41 10 167
41 11 140
41 13 208
41 14 318
41 15 68
41 16 256
41 18 49
41 19 149
41 20 123
41 21 259
41 22 105
41 23 76
41 24 203
41 25 14
41 26 291
41 27 217
41 28 225
41 29 17
41 30 227
41 31 189
41 33 157
41 34 88
41 35 306
41 36 268
41 37 164
41 38 108
41 39 146
41 40 87
42 0 253
42 1 159
42 2 253
42 3 232
42 4 108
42 5 11
42 6 48
42 7 11
42 8 99
42 9 192
42 10 292
42 11 319
42 13 251
42 14 210
42 15 66
42 17 115
42 18 147
42 19 36
42 20 117
42 21 237
42 22 135
42 23 226
42 25 279
42 26 144
42 28 303
42 29 105
42 31 26
42 32 310
42 33 151
42 34 110
42 35 144
42 37 270
42 38 177
42 39 49
42 40 256
42 41 185
43 0 132
43 1 147
43 2 283
43 4 93
43 6 210
43 7 276
43 8 96
43 10 287
43 11 208
43 13 12
43 14 283
43 15 46
43 16 74
43 17 109
43 18 207
43 19 265
43 22 185
43 24 228
43 25 102
43 26 163
43 27 205
43 28 81
43 30 283
43 31 132
43 33 261
43 35 137
43 37 318
43 38 254
43 39 83
43 40 192
43 41 209
43 42 264
44 1 320
44 3 75
44 4 68
44 5 145
44 6 214
44 7 139
44 9 166
44 10 263
44 11 231
44 12 186
44 13 102
44 14 265
44 15 255
44 16 23
44 17 209
44 18 214
44 19 137
44 20 222
44 21 207
44 23 147
44 24 25
44 26 48
44 27 285
44 28 99
44 29 10
44 30 5
44 32 243
44 33 258
44 34 136
44 36 141
44 37 303
44 38 308
44 39 169
44 41 301
44 42 203
45 1 67
45 2 261
45 3 305
45 4 176
45 5 37
45 6 110
45 7 33
45 8 37
45 9 194
45 10 184
45 11 132
45 12 114
45 13 26
45 14 304
45 15 154
45 16 266
45 17 175
45 19 181
45 20 149
45 21 43
45 22 313
45 23 191
45 25 181
45 27 101
45 28 100
45 29 233
45 30 294
45 32 49
45 33 259
45 34 43
45 35 271
45 36 184
45 37 218
45 38 313
45 40 194
45 41 53
45 42 99
45 43 305
45 44 160
46 0 50
46 1 61
46 3 116
46 4 172
46 5 26
46 6 83
46 7 199
46 8 285
46 9 320
46 10 18
46 11 108
46 13 215
46 16 106
46 18 61
46 19 256
46 20 8
46 21 148
46 22 56
46 24 43
46 25 7
46 27 185
46 28 237
46 30 117
46 31 179
46 32 183
46 33 219
46 34 69
46 35 100
46 36 178
46 37 304
46 38 74
46 40 79
46 41 77
46 42 245
46 43 119
46 44 27
46 45 295
47 0 252
47 2 56
47 3 250
47 4 284
47 5 34
47 6 72
47 7 40
47 8 268
47 9 21
47 10 157
47 11 191
47 12 2
47 14 67
47 15 194
47 16 151
47 17 202
47 18 283
47 19 95
47 20 241
47 21 282
47 23 126
47 24 149
47 25 26
47 26 253
47 28 242
47 29 205
47 30 102
47 31 76
47 32 294
47 33 9
47 34 27
47 35 224
47 37 175
47 38 217
47 39 165
47 40 110
47 42 170
47 43 227
47 44 164
47 45 216
47 46 116
48 1 52
48 2 220
48 3 282
48 5 224
48 6 163
48 7 106
48 9 73
48 12 81
48 13 77
48 14 52
48 15 316
48 18 173
48 19 263
48 22 8
48 23 183
48 24 99
48 25 191
48 26 268
48 28 93
48 30 263
48 31 123
48 32 36
48 33 5
48 34 61
48 35 302
48 36 133
48 37 175
48 38 264
48 39 309
48 40 125
48 42 114
48 43 235
48 45 120
48 47 275
49 1 253
49 2 136
49 3 65
49 4 118
49 6 157
49 7 295
49 8 232
49 9 248
49 10 310
49 11 50
49 12 217
49 13 179
49 14 83
49 15 76
49 16 54
49 18 80
49 20 137
49 21 3
49 22 136
49 23 133
49 24 136
49 25 294
49 26 277
49 27 97
49 28 254
49 29 299
49 30 102
49 31 136
49 32 156
49 33 67
49 35 145
49 36 129
49 38 161
49 39 81
49 40 296
49 41 292
49 42 10
49 43 241
49 44 285
49 45 18
49 47 217
49 48 135
50 0 146
50 1 140
50 2 303
50 3 148
50 5 238
50 6 15
50 7 245
50 8 303
50 9 40
50 10 299
50 11 8
50 12 209
50 13 89
50 14 19
50 15 307
50 16 227
50 17 62
50 18 222
50 21 217
50 22 19
50 23 225
50 24 242
50 25 121
50 26 54
50 28 76
50 29 281
50 30 11
50 31 268
50 32 139
50 33 33
50 34 292
50 35 102
50 36 15
50 37 108
50 38 86
50 39 198
50 41 143
50 42 279
50 43 76
50 44 163
50 45 155
50 46 104
50 48 146
50 49 230
51 0 296
51 1 178
51 2 272
51 4 182
51 5 59
51 6 144
51 9 251
51 12 180
51 13 270
51 14 206
51 15 161
51 16 116
51 18 228
51 19 21
51 20 243
51 21 98
51 22 293
51 23 37
51 25 19
51 26 269
51 27 7
51 28 208
51 30 126
51 32 197
51 33 95
51 35 51
51 36 278
51 37 73
51 38 237
51 39 264
51 40 243
51 41 40
51 42 97
51 43 310
51 46 55
51 47 137
51 48 73
51 49 51
51 50 233
52 0 10
52 2 4
52 3 69
52 4 106
52 6 105
52 7 164
52 8 45
52 9 144
52 10 40
52 11 305
52 12 255
52 13 72
52 14 203
52 15 195
52 17 7
52 18 273
52 19 301
52 21 67
52 22 241
52 23 256
52 24 121
52 25 46
52 27 287
52 30 224
52 31 114
52 32 285
52 33 170
52 35 285
52 36 101
52 37 162
52 39 220
52 40 311
52 44 227
52 46 144
52 47 116
52 48 184
52 49 132
52 50 134
52 51 255
53 0 20
53 1 157
53 2 257
53 3 79
53 5 187
53 6 200
53 7 66
53 8 133
53 9 44
53 10 59
53 11 33
53 12 253
53 15 182
53 16 131
53 18 317
53 20 271
53 22 315
53 23 131
53 24 157
53 25 156
53 26 152
53 28 299
53 29 221
53 30 205
53 32 214
53 33 123
53 34 114
53 35 309
53 36 174
53 37 264
53 38 71
53 40 89
53 41 75
53 42 23
53 44 126
53 45 99
53 46 15
53 47 19
53 48 126
53 50 261
53 51 211
53 52 144
54 0 18
54 2 25
54 3 232
54 4 74
54 5 266
54 6 183
54 7 76
54 8 157
54 9 238
54 11 247
54 12 166
54 15 258
54 16 246
54 18 28
54 19 12
54 22 169
54 23 131
54 24 304
54 25 35
54 26 250
54 27 193
54 28 65
54 29 317
54 30 155
54 31 115
54 32 164
54 34 48
54 35 22
54 36 180
54 37 245
54 38 57
54 39 117
54 41 220
54 43 204
54 45 74
54 47 314
54 48 164
54 49 151
54 50 269
54 51 160
54 52 214
55 0 45
55 1 134
55 3 15
55 4 165
55 5 319
55 6 234
55 7 180
55 8 191
55 10 124
55 11 212
55 13 275
55 14 253
55 15 160
55 16 152
55 17 285
55 18 187
55 19 176
55 22 91
55 23 61
55 24 316
55 28 187
55 29 221
55 30 96
55 31 204
55 32 30
55 33 23
55 34 241
55 35 194
55 36 272
55 37 101
55 38 3
55 40 141
55 41 141
55 42 299
55 43 129
55 44 68
55 46 5
55 47 97
55 48 115
55 49 315
55 50 154
55 51 175
55 54 194
56 0 45
56 1 274
56 2 113
56 3 139
56 4 197
56 6 263
56 7 11
56 9 224
56 10 73
56 11 227
56 12 5
56 13 136
56 14 244
56 16 87
56 17 35
56 18 27
56 19 231
56 20 276
56 21 95
56 22 17
56 23 56
56 25 108
56 26 78
56 27 38
56 28 305
56 30 158
56 31 4
56 32 236
56 34 35
56 35 22
56 36 194
56 37 8
56 39 54
56 40 142
56 41 300
56 44 102
56 45 313
56 46 179
56 47 23
56 48 147
56 49 115
56 52 320
56 53 126
56 54 175
56 55 136
57 0 206
57 1 102
57 2 100
57 3 3
57 4 216
57 5 183
57 6 246
57 7 282
57 8 59
57 9 16
57 10 84
57 12 4
57 14 127
57 15 29
57 17 116
57 18 188
57 19 295
57 20 94
57 22 103
57 24 202
57 26 181
57 27 195
57 30 53
57 31 234
57 34 170
57 35 122
57 36 190
57 38 88
57 39 63
57 44 197
57 46 217
57 47 26
57 48 103
57 49 11
57 51 303
57 52 22
57 53 77
57 54 252
58 0 114
58 1 118
58 2 75
58 3 303
58 5 24
58 6 44
58 7 234
58 8 278
58 9 51
58 10 257
58 12 109
58 13 153
58 14 98
58 15 110
58 17 89
58 19 88
58 21 254
58 22 147
58 24 62
58 25 218
58 26 21
58 27 210
58 28 262
58 30 179
58 32 108
58 33 25
58 34 84
58 36 297
58 37 45
58 38 150
58 39 261
58 40 152
58 41 320
58 42 199
58 43 71
58 44 107
58 45 58
58 46 319
58 48 271
58 49 294
58 50 141
58 51 216
58 53 71
58 54 166
58 55 136
58 56 26
58 57 276
59 0 166
59 1 150
59 2 256
59 3 88
59 5 57
59 7 138
59 8 143
59 9 172
59 10 82
59 11 89
59 12 298
59 13 55
59 14 251
59 15 190
59 16 38
59 17 82
59 18 46
59 19 117
59 20 207
59 21 160
59 22 263
59 23 19
59 24 139
59 26 269
59 27 207
59 28 134
59 29 129
59 30 240
59 31 147
59 33 67
59 34 193
59 36 87
59 37 93
59 38 57
59 40 46
59 41 224
59 42 163
59 43 288
59 45 37
59 46 320
59 48 303
59 49 115
59 50 293
59 51 220
59 52 19
59 53 62
59 54 109
59 55 145
59 56 300
59 57 30
60 0 33
60 2 174
60 3 232
60 4 121
60 5 89
60 7 191
60 8 271
60 9 185
60 10 74
60 11 169
60 12 234
60 14 56
60 15 59
60 20 153
60 23 80
60 24 81
60 25 134
60 26 236
60 27 149
60 28 157
60 29 169
60 30 107
60 31 214
60 33 127
60 34 294
60 35 159
60 36 37
60 37 181
60 38 25
60 39 168
60 40 118
60 41 295
60 42 67
60 43 147
60 44 145
60 46 203
60 49 205
60 50 180
60 51 298
60 52 114
60 53 236
60 54 130
60 55 11
60 56 96
60 57 262
60 58 99
60 59 314
61 0 153
61 3 46
61 5 102
61 6 132
61 7 181
61 8 107
61 10 165
61 11 222
61 12 141
61 13 280
61 14 307
61 15 300
61 17 123
61 18 34
61 19 295
61 20 27
61 22 229
61 24 173
61 26 188
61 28 48
61 29 72
61 30 35
61 33 46
61 35 306
61 36 222
61 37 223
61 38 134
61 39 44
61 41 15
61 42 186
61 43 208
61 44 101
61 45 221
61 46 47
61 47 304
61 48 222
61 49 269
61 50 241
61 51 277
61 52 179
61 55 177
61 56 115
61 57 48
61 58 20
61 59 111
61 60 130
62 0 106
62 1 110
62 2 164
62 3 51
62 4 154
62 5 190
62 6 158
62 7 87
62 8 297
62 9 72
62 10 47
62 11 133
62 12 255
62 13 251
62 14 121
62 15 105
62 16 123
62 17 36
62 18 270
62 19 286
62 20 139
62 22 100
62 23 79
62 24 203
62 26 295
62 27 179
62 28 270
62 29 22
62 31 131
62 32 100
62 33 315
62 34 291
62 35 160
62 36 121
62 37 53
62 39 162
62 40 117
62 41 159
62 43 109
62 44 239
62 45 132
62 47 36
62 48 64
62 49 98
62 50 59
62 51 274
62 52 72
62 53 187
62 54 89
62 56 57
62 57 29
62 58 97
62 59 47
62 60 244
62 61 269
63 0 96
63 1 40
63 2 153
63 3 230
63 4 122
63 5 86
63 6 143
63 7 82
63 8 184
63 9 109
63 14 294
63 16 57
63 17 100
63 18 192
63 19 295
63 20 48
63 21 120
63 22 307
63 23 78
63 24 316
63 25 172
63 26 112
63 27 184
63 28 305
63 29 108
63 30 184
63 31 313
63 32 224
63 33 39
63 34 172
63 35 52
63 37 288
63 38 84
63 39 143
63 40 246
63 42 127
63 43 268
63 45 44
63 46 76
63 47 7
63 48 26
63 49 157
63 50 273
63 53 319
63 56 180
63 57 149
63 58 298
63 59 238
63 60 217
63 61 50
63 62 34
64 1 208
64 2 258
64 3 27
64 4 217
64 5 43
64 6 2
64 7 311
64 8 250
64 9 300
64 10 133
64 12 100
64 14 204
64 15 61
64 16 154
64 17 60
64 18 61
64 19 300
64 20 259
64 21 200
64 22 252
64 24 44
64 25 226
64 26 171
64 27 214
64 29 63
64 30 317
64 31 183
64 32 205
64 33 205
64 34 42
64 35 146
64 36 82
64 37 238
64 40 11
64 41 178
64 42 229
64 43 263
64 45 124
64 46 258
64 48 51
64 49 311
64 50 102
64 51 57
64 52 143
64 54 216
64 55 112
64 56 126
64 58 27
64 60 307
64 61 167
64 62 55
64 63 242
65 0 200
65 1 162
65 2 141
65 3 68
65 4 252
65 5 120
65 6 230
65 7 181
65 8 263
65 9 96
65 10 115
65 11 139
65 12 276
65 13 37
65 14 252
65 15 248
65 17 219
65 18 255
65 19 254
65 20 45
65 21 63
65 23 147
65 24 315
65 25 137
65 26 84
65 27 37
65 28 124
65 29 195
65 30 91
65 31 147
65 32 43
65 33 1
65 34 17
65 35 212
65 36 243
65 37 32
65 38 234
65 39 283
65 40 220
65 41 165
65 42 279
65 43 267
65 44 58
65 45 110
65 46 63
65 48 129
65 49 106
65 51 37
65 52 302
65 53 226
65 54 236
65 55 160
65 56 87
65 57 173
65 59 58
65 60 143
65 61 236
65 62 88
65 64 131
66 0 7
66 1 43
66 2 285
66 3 277
66 4 131
66 6 251
66 7 225
66 9 237
66 10 64
66 11 204
66 12 129
66 14 14
66 15 97
66 16 36
66 17 178
66 18 208
66 19 28
66 20 96
66 21 306
66 22 185
66 23 160
66 25 291
66 26 268
66 28 124
66 29 261
66 30 180
66 31 139
66 32 14
66 33 268
66 34 63
66 35 287
66 36 46
66 37 178
66 38 269
66 39 125
66 40 170
66 42 302
66 44 118
66 45 35
66 47 235
66 48 320
66 49 156
66 50 26
66 53 223
66 54 115
66 56 131
66 57 275
66 58 180
66 59 216
66 60 235
66 61 119
66 62 138
66 63 185
66 65 106
67 0 37
67 1 298
67 2 121
67 3 52
67 4 33
67 6 180
67 7 156
67 8 36
67 9 96
67 10 274
67 11 157
67 12 241
67 13 15
67 14 110
67 15 290
67 16 79
67 17 102
67 18 66
67 19 214
67 20 104
67 21 149
67 22 156
67 23 221
67 24 247
67 25 282
67 26 203
67 27 231
67 28 142
67 29 274
67 30 212
67 31 273
67 32 155
67 33 16
67 34 145
67 37 257
67 39 34
67 40 296
67 41 57
67 42 317
67 44 302
67 45 284
67 47 141
67 48 214
67 49 191
67 50 185
67 51 238
67 52 121
67 53 133
67 54 319
67 55 45
67 56 317
67 57 112
67 58 78
67 59 182
67 60 131
67 61 121
67 63 30
67 64 236
67 66 140
68 0 193
68 1 28
68 2 274
68 3 25
68 4 115
68 6 96
68 7 243
68 8 298
68 10 320
68 11 110
68 12 219
68 13 206
68 14 123
68 15 53
68 17 42
68 18 224
68 19 171
68 21 122
68 22 254
68 23 195
68 24 199
68 25 301
68 26 34
68 27 283
68 28 129
68 29 4
68 30 29
68 32 157
68 34 101
68 35 125
68 37 59
68 39 174
68 40 82
68 41 96
68 42 172
68 43 174
68 44 205
68 45 204
68 46 9
68 47 254
68 48 293
68 49 178
68 50 285
68 52 152
68 54 90
68 55 291
68 56 3
68 57 218
68 58 242
68 59 142
68 60 195
68 61 71
68 62 244
68 63 112
68 64 222
68 65 108
68 67 249
69 0 318
69 2 250
69 3 253
69 5 267
69 6 201
69 7 214
69 9 193
69 10 38
69 11 319
69 12 125
69 14 226
69 15 247
69 16 170
69 17 266
69 18 174
69 19 146
69 20 207
69 22 72
69 23 300
69 24 81
69 25 79
69 27 4
69 28 93
69 29 283
69 30 90
69 31 10
69 32 109
69 33 302
69 34 288
69 36 276
69 37 37
69 38 85
69 39 100
69 40 15
69 42 181
69 43 302
69 44 149
69 45 122
69 46 273
69 47 24
69 48 35
69 49 269
69 51 140
69 52 103
69 53 180
69 54 304
69 55 95
69 56 257
69 57 202
69 58 191
69 59 115
69 61 183
69 62 313
69 63 13
69 64 249
69 66 196
69 67 267
69 68 205
